*************************************************************

   NEOS Server Version 6.0
   Job#     : 16222658
   Password : NkZtqYrh
   User     : 
   Solver   : lp:HiGHS:AMPL
   Start    : 2025-06-09 12:45:24
   End      : 2025-06-09 12:45:31
   Host     : prod-sub-1.neos-server.org

   Disclaimer:

   This information is provided without any express or
   implied warranty. In particular, there is no warranty
   of any kind concerning the fitness of this
   information for any particular purpose.

   Announcements:
*************************************************************
You are using the solver highsampl.
Checking ampl.mod for highsampl_options...
Checking ampl.com for highsampl_options...
Executing AMPL.
processing data.
processing commands.
Executing on prod-exec-7.neos-server.org

Presolve eliminates 2 constraints.
"option presolve 10;" used, but "option presolve 2;" would suffice.
Adjusted problem:
2 variables, all integer
2 constraints, all linear; 4 nonzeros
	2 inequality constraints
1 linear objective; 2 nonzeros.

HiGHS 1.7.0:   tech:outlev = 1
Running HiGHS 1.7.0 (git hash: 50670fd): Copyright (c) 2024 HiGHS under MIT licence terms
Coefficient ranges:
  Matrix [1e+00, 1e+00]
  Cost   [6e+02, 8e+02]
  Bound  [2e+02, 2e+02]
  RHS    [4e+02, 4e+02]
Presolving model
2 rows, 2 cols, 4 nonzeros  0s
2 rows, 2 cols, 4 nonzeros  0s
Objective function is integral with scale 0.005

Solving MIP model with:
   2 rows
   2 cols (0 binary, 2 integer, 0 implied int., 0 continuous)
   4 nonzeros

        Nodes      |    B&B Tree     |            Objective Bounds              |  Dynamic Constraints |       Work      
     Proc. InQueue |  Leaves   Expl. | BestBound       BestSol              Gap |   Cuts   InLp Confl. | LpIters     Time

         0       0         0   0.00%   280000          -inf                 inf        0      0      0         0     0.0s

Solving report
  Status            Optimal
  Primal bound      250000
  Dual bound        250000
  Gap               0% (tolerance: 0.01%)
  Solution status   feasible
                    250000 (objective)
                    0 (bound viol.)
                    0 (int. viol.)
                    0 (row viol.)
  Timing            0.00 (total)
                    0.00 (presolve)
                    0.00 (postsolve)
  Nodes             1
  LP iterations     1 (total)
                    0 (strong br.)
                    0 (separation)
                    0 (heuristics)
HiGHS 1.7.0: optimal solution; objective 250000
1 simplex iterations
1 branching nodes
Total_Revenue = 250000

Boats [*] :=
 Premier  200
Standard  150
;

NEOS Server Home
